WARNING: for repeatability, setting FPU to use double precision
============================[ Problem Statistics ]=============================
|                                                                             |
|  Number of variables:        158745                                         |
|  Number of clauses:          372495                                         |
|  Parse time:                   0.09 s                                       |
|                                                                             |
c ============================[ Search Statistics ]==============================
c | Conflicts |          ORIGINAL         |          LEARNT          | Progress |
c |           |    Vars  Clauses Literals |    Limit  Clauses Lit/Cl |          |
c ===============================================================================
c Switched to VSIDS.
c Switched to LRB.
c Switched to VSIDS.
c Switched to LRB.
c Switched to VSIDS.
c Switched to LRB.
c Switched to VSIDS.
c Switched to LRB.
c Switched to VSIDS.
c Switched to LRB.
c Switched to VSIDS.
c ===============================================================================
restarts                  : 3659
conflicts                 : 804535         (1527 /sec)
decisions                 : 33214953       (0.00 % random) (63061 /sec)
propagations              : 1362866476     (2587490 /sec)
conflict literals         : 62376219       (34.47 % deleted)

conflicts w/ DIP found    : 578705         (71.93 % of conflicts)
conflicts w/ dangerous DIP: 0              (0.00 % of conflicts)
conflicts w/ DIP-learning : 140            (0.02 % of conflicts)
decisions on ext vars     : 2822           (0.01 % of decisions)
total ext vars            : 52          
tried delete ext vars     : 4           
deleted ext vars          : 4           
max ext vars              : 48          

Memory used               : 232.00 MB
CPU time                  : 526.714 s
DIP computation time      : 50.5893 s (9.60 % of total time)
ER_sel time               : 1.14131 s
ER_add time               : 0.000584 s
ER_delC time              : 0 s
ER_delV time              : 0.001323 s
ER_sub time               : 1.45482 s
ER_stat time              : 0 s

SATISFIABLE
